6872745599236752340509,5,1,2,010,11,1,2,01,3,1,2,06,11,1,2,05,15,1,2,09,15,1,2,012,12,1,2,012,4,1,2,08,12,1,2,03,7,1,2,01,10,1,2,07,9,1,2,06,4,1,2,05,11,1,2,010,11,1,2,013,9,1,2,014,14,1,2,015,12,1,2,09,3,1,2,012,11,1,2,08,1,1,2,05,12,1,2,09,15,1,2,08,1,1,2,014,4,1,2,02,14,1,2,011,4,1,2,014,7,1,2,02,12,1,2,013,11,1,2,06,2,1,2,05,13,1,2,04,9,1,2,01,4,1,2,01,15,1,2,014,14,1,2,02,10,1,2,014,1,1,2,07,2,1,2,010,6,1,2,05,1,1,2,011,1,1,2,015,4,1,2,04,1,1,2,02,7,1,2,010,7,1,2,011,6,1,2,07,12,1,2,03,15,1,2,013,11,1,2,0